
   AbsCon 1.41 (January, 2014) - defaultConfiguration

   
   instance
        framework=CSP  name=Isomorphism-/cluster/gpg/ciaran/sip-benchmarks/benchmarks/LV/g10-/cluster/gpg/ciaran/sip-benchmarks/benchmarks/LV/g49
        parameters=/cluster/gpg/ciaran/sip-benchmarks/benchmarks/LV/g10,/cluster/gpg/ciaran/sip-benchmarks/benchmarks/LV/g49
      

   loading variables...
        nbVariables=41  nbDomainTypes=1  nbTotalValues=5248  domainSizes=(128:41)
          =>  wckTime=0.251  cpuTime=0.385  mem=9M531

   loading objectives...

   loading constraints...
        nbConstraints=81  nbSpecificConstraints=1  nbExtensionStructures=(1,shared:79)  nbConflictsStructures=(1,shared:79,unbuilt:1)
        degrees=(2:1)(3:6)(4:10)...(7:4)(9:1)(10:1)  arities=(2:80)(41:1)  types=(AllDifferent:1)(ConstraintHardExtensionV-Bits:80)
          =>  wckTime=0.327  cpuTime=0.46  mem=7M48

   INFO : <!-- Start saving the XML representation -->

   INFO : <!-- Stop saving the XML representation of g49.xml -->

   Solver SolverBacktrack being built... 
          =>  wckTime=0.58  cpuTime=0.689  mem=20M835

    instantiation X0=47 X1=34 X2=15 X3=116 X4=124 X5=50 X6=11 X7=4 X8=32 X9=104 X10=77 X11=64 X12=119 X13=30 X14=101 X15=31 X16=79 X17=89 X18=73 X19=33 X20=0 X21=46 X22=97 X23=113 X24=96 X25=120 X26=43 X27=107 X28=102 X29=108 X30=26 X31=109 X32=75 X33=127 X34=38 X35=78 X36=7 X37=42 X38=18 X39=99 X40=72 

    solution X0=47 X1=34 X2=15 X3=116 X4=124 X5=50 X6=11 X7=4 X8=32 X9=104 X10=77 X11=64 X12=119 X13=30 X14=101 X15=31 X16=79 X17=89 X18=73 X19=33 X20=0 X21=46 X22=97 X23=113 X24=96 X25=120 X26=43 X27=107 X28=102 X29=108 X30=26 X31=109 X32=75 X33=127 X34=38 X35=78 X36=7 X37=42 X38=18 X39=99 X40=72 

   
   search
        run=0  nbConstraintChecks=81  depth=(min:7,max:40,avg:18)  nbEffectivePropagations=2860  nbRevisions=7819  nbUselessRevisions=6961
        nbAssignments=202  nbFailedAssignments=105  nbBacktracks=56  nbVisitedNodes=347  nbRestartNogoods=0  nbFoundSolutions=1
        upperBound=9223372036854775807
          =>  wckTime=1.187  cpuTime=1.847  mem=15M794

   
   global
        nbConstraintChecks=81  nbEffectivePropagations=2860  nbRevisions=7819  nbUselessRevisions=6961  nbRestartNogoods=0  solvingWckTime=1.187
        expiredTime=no  totalExploration=no  nbFoundSolutions=1  firstSolutionCpuTime=1.845  Stop=REACHED_GOAL
          =>  wckTime=1.768  cpuTime=1.848  mem=15M794

s SATISFIABLE
v X0=47 X1=34 X2=15 X3=116 X4=124 X5=50 X6=11 X7=4 X8=32 X9=104 X10=77 X11=64 X12=119 X13=30 X14=101 X15=31 X16=79 X17=89 X18=73 X19=33 X20=0 X21=46 X22=97 X23=113 X24=96 X25=120 X26=43 X27=107 X28=102 X29=108 X30=26 X31=109 X32=75 X33=127 X34=38 X35=78 X36=7 X37=42 X38=18 X39=99 X40=72 
d NODES 202

   totalWckTime=1.618  totalCpuTime=1.848
